NAME : ClusterId_54 
COMMENT : (Gillet and Johnson) 
TYPE : CVRP 
DIMENSION : 10 
EDGE_WEIGHT_TYPE : EUC_2D 
CAPACITY : 160 
NODE_COORD_SECTION 
54 60 50 
36 63 69 
35 62 63 
21 62 42 
29 58 48 
20 57 58 
3 52 64 
2 49 49 
28 43 67 
31 37 69 
DEMAND_SECTION 
54 2330
36 6
35 17
21 8
29 6
20 28
3 16
2 30
28 14
31 11
DEPOT_SECTION 
54
 -1
EOF